89, 809
1158, 934
359, 652
1204, 588
1153, 635
1249, 997
316, 733
486, 554
957, 829
1182, 653
271, 603
1083, 917
543, 715
382, 708
544, 668
515, 645
1016, 519
439, 791
640, 661
774, 520
1147, 719
785, 619
1233, 720
532, 661
1026, 527
785, 780
816, 929
272, 733
1195, 986
1134, 701
1058, 926
277, 672
439, 722
845, 932
266, 576
488, 592
890, 693
356, 505
742, 785
556, 935
604, 772
1177, 846
1220, 913
735, 912
1059, 805
1071, 502
715, 505
887, 504
350, 986
468, 519
683, 910
956, 578
287, 838
1185, 945
1216, 832
777, 976
984, 915
542, 572
363, 648
511, 785
713, 623
1241, 916
775, 855
990, 700
724, 779
1097, 523
839, 704
363, 803
1178, 982
912, 883
434, 580
690, 986
535, 626
602, 991
274, 934
1125, 603
1211, 577
391, 626
907, 538
1104, 816
1213, 721
1179, 797
735, 553
1223, 551
989, 585
1011, 794
1164, 953
293, 902
650, 694
410, 802